0 912 
1 900 
2 896 
3 870 
4 858 
5 846 
6 830 
7 826 
8 818 
9 814 
10 806 
11 786 
12 784 
13 776 
14 764 
15 746 
16 736 
17 734 
18 722 
19 718 
20 718 
21 714 
22 710 
23 706 
24 702 
25 700 
26 692 
27 690 
28 680 
29 674 
30 662 
31 658 
32 650 
33 636 
34 634 
35 630 
36 622 
37 614 
38 614 
39 614 
40 606 
41 604 
42 604 
43 604 
44 604 
45 604 
46 604 
47 604 
48 604 
49 602 
50 602 

